(set-info :smt-lib-version 2.6)
(set-logic QF_SLIA)
(set-info :source |
Generated by: Denghang Hu
Generated on: 2023-04-14
Application: Evaluate string solvers
Target solver: Ostrich, Z3str3, CVC5
Description: The instance consists of:
(1) a regular membership predicate from the real world
(2) a regular membership predicate to sanitize danger letters in javascript such as <,>,&,",'
(3) a lower bound for string length
|)
(set-info :license "https://creativecommons.org/licenses/by/4.0/")
(set-info :category "industrial")
(set-info :status unknown)
        ;test regex Regex.Match(txt, @"(^HRB .*?\d{5}\s+\S+\.)")
(declare-const X String)
(assert (str.in_re X (re.++ (str.to_re "R") (re.++ (str.to_re "e") (re.++ (str.to_re "g") (re.++ (str.to_re "e") (re.++ (str.to_re "x") (re.++ (re.diff re.allchar (str.to_re "\n")) (re.++ (str.to_re "M") (re.++ (str.to_re "a") (re.++ (str.to_re "t") (re.++ (str.to_re "c") (re.++ (str.to_re "h") (re.++ (re.++ (str.to_re "t") (re.++ (str.to_re "x") (str.to_re "t"))) (re.++ (str.to_re ",") (re.++ (str.to_re " ") (re.++ (str.to_re "@") (re.++ (str.to_re "\u{22}") (re.++ (re.++ (str.to_re "") (re.++ (str.to_re "H") (re.++ (str.to_re "R") (re.++ (str.to_re "B") (re.++ (str.to_re " ") (re.++ (re.* (re.diff re.allchar (str.to_re "\n"))) (re.++ ((_ re.loop 5 5) (re.range "0" "9")) (re.++ (re.+ (re.union (str.to_re " ") (re.union (str.to_re "\u{0b}") (re.union (str.to_re "\u{0a}") (re.union (str.to_re "\u{0d}") (re.union (str.to_re "\u{09}") (str.to_re "\u{0c}"))))))) (re.++ (re.+ (re.inter (re.diff re.allchar (str.to_re "\u{20}")) (re.inter (re.diff re.allchar (str.to_re "\u{0a}")) (re.inter (re.diff re.allchar (str.to_re "\u{0b}")) (re.inter (re.diff re.allchar (str.to_re "\u{0d}")) (re.inter (re.diff re.allchar (str.to_re "\u{09}")) (re.diff re.allchar (str.to_re "\u{0c}")))))))) (str.to_re ".")))))))))) (str.to_re "\u{22}"))))))))))))))))))))
; sanitize danger characters:  < > ' " &
(assert (not (str.in_re X (re.++ re.all (re.union (str.to_re "\u{3c}") (str.to_re "\u{3e}") (str.to_re "\u{27}") (str.to_re "\u{22}") (str.to_re "\u{26}")) re.all))))
(assert (< 20 (str.len X)))
(check-sat)
(exit)
